Version identifier: 12.10.0.0 | 2019-11-26 | 843d4de
CPXPARAM_WorkMem                                 28672
Tried aggregator 2 times.
Aggregator did 60 substitutions.
Reduced MIP has 203 rows, 240 columns, and 906 nonzeros.
Reduced MIP has 240 binaries, 0 generals, 0 SOSs, and 0 indicators.
Presolve time = 0,00 sec. (0,88 ticks)
Found incumbent of value 978,000000 after 0,00 sec. (1,43 ticks)
Probing time = 0,00 sec. (0,31 ticks)
Tried aggregator 1 time.
Detecting symmetries...
MIP Presolve eliminated 48 rows and 0 columns.
MIP Presolve added 96 rows and 0 columns.
Reduced MIP has 251 rows, 240 columns, and 954 nonzeros.
Reduced MIP has 240 binaries, 0 generals, 0 SOSs, and 0 indicators.
Presolve time = 0,00 sec. (1,04 ticks)
Probing time = 0,00 sec. (0,30 ticks)
Clique table members: 626.
MIP emphasis: balance optimality and feasibility.
MIP search method: dynamic search.
Parallel mode: deterministic, using up to 16 threads.
Root relaxation solution time = 0,00 sec. (1,09 ticks)

        Nodes                                         Cuts/
   Node  Left     Objective  IInf  Best Integer    Best Bound    ItCnt     Gap

*     0+    0                          978,0000        0,0000           100,00%
*     0+    0                          653,0000        0,0000           100,00%
*     0+    0                          606,0000        0,0000           100,00%
      0     0      326,0000   166      606,0000      326,0000      115   46,20%
      0     0      326,0000   166      606,0000     Cuts: 162      204   46,20%
*     0+    0                          601,0000      326,0000            45,76%
      0     0      326,7158   166      601,0000     Cuts: 162      321   45,64%
*     0+    0                          562,0000      326,7158            41,87%
      0     0      327,3645   166      562,0000     Cuts: 106      337   41,75%
      0     0      327,8163   166      562,0000       Cuts: 3      349   41,67%
*     0+    0                          557,0000      327,8163            41,15%
      0     0      327,9549   166      557,0000      Cuts: 26      364   41,12%
Detecting symmetries...
      0     0      328,4654   166      557,0000      Cuts: 49      392   41,03%
      0     0      328,7372   166      557,0000      Cuts: 20      415   40,98%
      0     0      329,0657   166      557,0000       Cuts: 3      428   40,92%
      0     0      329,0869   166      557,0000   ZeroHalf: 1      433   40,92%
*     0+    0                          549,0000      329,0869            40,06%
*     0+    0                          529,0000      329,0869            37,79%
*     0+    0                          505,0000      329,0869            34,83%
Detecting symmetries...
      0     2      329,0869   238      505,0000      378,3333      433   25,08%
Elapsed time = 0,18 sec. (91,00 ticks, tree = 0,02 MB, solutions = 9)
*  1118+  540                          504,0000      412,2200            18,21%
   3164   927        cutoff            504,0000      459,8667    99723    8,76%

Clique cuts applied:  121
Cover cuts applied:  295
Flow cuts applied:  1
Mixed integer rounding cuts applied:  34
Zero-half cuts applied:  8
Gomory fractional cuts applied:  4

Root node processing (before b&c):
  Real time             =    0,17 sec. (90,74 ticks)
Parallel b&c, 16 threads:
  Real time             =    0,64 sec. (290,93 ticks)
  Sync time (average)   =    0,31 sec.
  Wait time (average)   =    0,00 sec.
                          ------------
Total (root+branch&cut) =    0,82 sec. (381,68 ticks)
